NAME: instance_1527
TYPE: TSP
DIMENSION: 20
EDGE_WEIGHT_TYPE: EUC_2D
NODE_COORD_SECTION
0 16.04 27.66
1 64.60 27.26
2 0.94 38.71
3 12.09 77.67
4 15.58 74.74
5 1.98 97.50
6 6.21 65.00
7 52.63 34.79
8 80.06 58.18
9 0.36 35.96
10 25.86 89.46
11 8.41 56.00
12 78.70 0.76
13 51.67 68.89
14 79.44 96.20
15 18.67 10.67
16 45.24 65.22
17 13.20 38.29
18 2.96 37.63
19 49.37 59.74
EOF
